0 80 77 78 79 56 98 96 1 95 75 76 69 70 71 72 73 74 68 35 34 33 32 31 4 67 25 26 97 45 46 3 87 88 89 90 91 92 93 47 14 28 44 27 30 58 59 7 8 29 49 50 51 48 9 6 60 61 62 66 65 64 63 12 11 10 13 37 41 38 42 40 36 43 39 81 86 85 84 83 82 21 22 23 24 15 99 16 17 2 18 19 20 94 54 55 52 53 5 57 0 